coords = array2d(1..59, 1..2, [45, 900, 81, 96, 795, 139, 888, 734, 527, 150,
    929, 613, 913, 349, 67, 58, 626, 641, 893, 711, 762, 965, 561,
    211, 853, 98, 792, 223, 885, 529, 553, 20, 893, 35, 36, 479, 901,
    50, 141, 445, 72, 588, 501, 599, 924, 458, 813, 998, 765, 511,
    210, 45, 323, 738, 374, 777, 100, 368, 924, 665, 378, 262, 943,
    945, 578, 833, 254, 752, 532, 723, 381, 717, 267, 633, 393, 318,
    119, 778, 196, 389, 355, 92, 417, 205, 861, 970, 112, 468, 864,
    226, 774, 560, 361, 28, 914, 354, 141, 524, 408, 743, 62, 36, 563,
    326, 653, 285, 221, 371, 312, 278, 7, 698, 818, 518, 34, 825, 129,
    620]);

n = 59;

